QBPP_HJ+_25_025_06_3
25 193 69
5 34 21 36 38 9 1 9 50 50 27 27 7 29 15 18 7 46 19 36 15 38 6 31 3
   0   0   0   0  85   0  16  72   0   0   0  78   0   0   0   0   0   0   0   0   0   0  86   0   0
   0   0   0  62   0   0  33   0   0   0   0   0  10  57  75   0  50   0   0   0   0   0   0   0   0
   0   0   0   0   0   0   0  34   0   0  96  18  73   0  94   0   0   0   0   0   0   0   0   0   0
   0  62   0   0   0   0   0   0  41   0   0   0   0  55  20   0   0   0   0   0  73  98   0  44   0
  85   0   0   0   0   0   0  81   0   0   0   0   0   0  89   0   0   0   0  96   0   0   0   0  65
   0   0   0   0   0   0   3   0   0   0   0   0   0  34   0   0   0   0   0  54   0   0  23  84   0
  16  33   0   0   0   3   0   0  30  10   0  55  53   0   0   0  49   0   0   0   0  98  96   0   0
  72   0  34   0  81   0   0   0   0   6  90   0   0  53   0  30   0   0   0  73  57   0   0  14   0
   0   0   0  41   0   0  30   0   0   0   0   0   7   0   0   0   0   0  20  79   0   5   0   0   0
   0   0   0   0   0   0  10   6   0   0   0   0   0   0   0   0   0   0   0   0  94   0  69   0   0
   0   0  96   0   0   0   0  90   0   0   0   0   0   0   0   0   0   0   0  31  50   0   0   0   0
  78   0  18   0   0   0  55   0   0   0   0   0  44   0   0   0   0   0  58  51   0   0  10   0   0
   0  10  73   0   0   0  53   0   7   0   0  44   0   0   0   0   0   0   0   0   0   0   0   0   0
   0  57   0  55   0  34   0  53   0   0   0   0   0   0  36  21   0  82  54  79   9   0   0   0   0
   0  75  94  20  89   0   0   0   0   0   0   0   0  36   0  56   0   0   0  89  93   0  79  36   0
   0   0   0   0   0   0   0  30   0   0   0   0   0  21  56   0   0   0   0   0   0   0   0   0   0
   0  50   0   0   0   0  49   0   0   0   0   0   0   0   0   0   0   0   0   0  70   0   0  85  27
   0   0   0   0   0   0   0   0   0   0   0   0   0  82   0   0   0   0   0  11  50   0   0  28  81
   0   0   0   0   0   0   0   0  20   0   0  58   0  54   0   0   0   0   0   0  82  46   0   0   0
   0   0   0   0  96  54   0  73  79   0  31  51   0  79  89   0   0  11   0   0   0  99   0   0  40
   0   0   0  73   0   0   0  57   0  94  50   0   0   9  93   0  70  50  82   0   0   0  67  20   0
   0   0   0  98   0   0  98   0   5   0   0   0   0   0   0   0   0   0  46  99   0   0   0   0   0
  86   0   0   0   0  23  96   0   0  69   0  10   0   0  79   0   0   0   0   0  67   0   0  86   0
   0   0   0  44   0  84   0  14   0   0   0   0   0   0  36   0  85  28   0   0  20   0  86   0   5
   0   0   0   0  65   0   0   0   0   0   0   0   0   0   0   0  27  81   0  40   0   0   0   5   0
